103 6
10 10 10 10 10 10
1 0 0 0 0 0 0 3 2 3 4
1 4 7 0 0 0 0 4 5 6 7 8
10 2 0 0 0 0 10 4 103 6 7 8
1 2 9 0 2 0 0 4 5 6 7 8
1 0 3 8 2 0 0 4 9 10 11 12
1 6 5 6 1 7 0 3 10 11 12
8 3 10 5 5 0 5 4 9 10 11 12
1 0 3 0 7 0 9 2 11 12
1 0 0 4 0 0 0 3 13 14 15
5 3 10 0 6 0 8 4 13 14 15 16
3 5 0 7 0 6 0 3 13 14 15
1 0 0 0 0 0 4 3 13 14 15
1 0 10 5 0 0 10 3 17 18 20
1 3 0 0 0 5 0 4 17 18 19 20
5 5 0 6 0 9 0 3 17 18 20
3 0 0 10 0 0 0 4 17 18 19 20
9 10 9 5 0 0 8 3 21 23 24
1 9 0 0 10 10 10 4 21 22 23 24
1 0 10 2 0 0 6 3 21 23 24
1 5 8 0 2 9 3 3 21 23 24
1 7 0 5 4 0 4 3 25 26 28
2 0 0 1 3 2 8 4 25 26 27 28
1 0 4 3 0 0 1 4 25 26 27 28
6 6 2 0 0 2 0 4 25 26 27 28
6 0 2 0 0 7 3 3 29 30 31
6 0 4 0 0 7 9 2 30 31
8 8 2 0 4 1 7 4 29 30 31 32
1 0 0 0 3 2 2 4 29 30 31 32
3 0 5 0 8 9 3 4 33 34 35 36
1 7 8 6 10 2 0 4 33 34 35 36
1 4 10 0 0 2 0 4 33 34 35 36
10 0 0 0 0 0 4 4 33 34 35 36
2 3 0 1 0 0 0 3 37 38 40
1 0 9 0 0 7 0 3 37 38 39
1 0 3 0 1 0 2 4 37 38 39 40
1 8 0 0 0 0 9 4 37 38 39 40
9 0 0 0 0 8 0 4 41 42 43 44
1 6 9 8 8 4 0 4 41 42 43 44
1 8 9 0 0 0 4 4 41 42 43 44
1 0 6 0 0 0 0 4 41 42 43 44
6 0 0 0 9 0 0 3 45 46 48
2 1 0 1 1 1 8 3 45 47 48
1 0 0 5 7 0 6 2 45 47
5 2 0 2 0 5 0 2 45 48
9 0 6 0 7 0 0 4 49 50 51 52
1 7 3 4 0 0 8 3 49 50 51
1 9 0 8 1 0 0 4 49 50 51 52
3 1 0 1 2 4 0 4 49 50 51 52
1 7 0 7 2 5 0 3 53 54 56
9 4 2 0 3 4 0 3 53 54 56
1 8 0 0 4 0 9 4 53 54 55 56
3 0 8 10 0 9 4 2 53 56
4 0 0 0 0 0 6 4 57 58 59 60
1 6 7 4 10 1 0 3 57 58 59
1 0 9 7 0 3 0 4 57 58 59 60
5 0 9 7 3 8 0 2 58 59
1 7 0 0 7 0 0 4 61 62 63 64
10 0 9 8 2 3 0 4 61 62 63 64
5 0 6 0 1 5 0 4 61 62 63 64
2 0 0 7 3 0 0 3 61 62 64
5 0 0 9 10 8 9 2 67 68
2 0 0 2 0 0 1 3 66 67 68
8 4 9 9 0 0 5 3 65 67 68
5 9 0 0 0 9 0 2 67 68
5 0 0 0 9 8 0 4 69 70 71 72
4 6 2 0 2 0 0 3 69 70 72
1 8 5 0 0 10 10 3 69 70 72
1 4 3 8 6 0 6 4 69 70 71 72
4 0 0 0 7 6 0 3 74 75 76
2 6 7 0 0 0 5 2 74 75
1 0 4 0 0 4 0 2 75 76
1 4 0 2 9 0 0 3 73 75 76
3 9 10 0 0 0 0 4 77 78 79 80
1 0 4 8 2 9 10 2 78 79
8 2 0 0 0 0 9 3 77 78 79
6 0 0 6 0 0 1 3 78 79 80
7 0 0 2 0 4 0 4 81 82 83 84
1 10 0 0 4 0 0 3 81 82 83
6 0 5 4 4 0 9 3 81 82 84
2 0 6 4 0 4 3 2 81 84
8 2 0 2 0 3 0 4 85 86 87 88
1 0 2 0 0 3 0 4 85 86 87 88
4 3 0 8 0 9 7 4 85 86 87 88
4 0 7 0 5 3 0 3 85 87 88
1 3 0 0 0 0 9 2 89 92
4 0 0 2 0 6 0 3 89 90 92
9 0 0 0 9 0 3 3 89 90 92
6 0 0 0 0 6 8 3 89 91 92
1 8 3 0 0 2 0 3 94 95 96
9 7 6 0 2 0 0 3 94 95 96
3 9 0 10 0 0 9 3 94 95 96
1 5 4 10 0 0 0 4 93 94 95 96
1 0 6 9 4 10 0 3 97 98 100
3 10 9 0 1 4 0 2 97 100
1 10 0 10 4 4 1 4 97 98 99 100
1 1 5 2 0 0 0 2 97 100
3 6 0 6 9 2 4 1 102
6 0 9 1 4 0 0 1 101
6 0 0 8 9 8 10 1 101
10 6 2 0 3 10 0 1 102
2 7 2 6 0 0 0 1 103
10 5 0 0 0 0 2 1 103
0 0 0 0 0 0 0 0
